(declare-var x1 Int)
(declare-var x2 Int)
(declare-var x3 Int)
(declare-var x4 Int)
(declare-var x5 Int)
(declare-var x6 Int)
(declare-var x7 Int)
(declare-var x8 Int)

(synth-fun f ((x Int) (y Int) (z Int) (w Int)) Int)

(constraint (or (> (+ (f x1 x2 x3 x4) (f x5 x6 x7 x8)) x1)
                (< (+ (f x1 x2 x3 x4) (f x5 x6 x7 x8)) x5)))
(constraint (or (> (+ (f x1 x2 x3 x4) (f x5 x6 x7 x8)) x2)
                (< (+ (f x1 x2 x3 x4) (f x5 x6 x7 x8)) x6)))
(constraint (or (> (+ (f x1 x2 x3 x4) (f x5 x6 x7 x8)) x3)
                (< (+ (f x1 x2 x3 x4) (f x5 x6 x7 x8)) x7)))
(constraint (or (> (+ (f x1 x2 x3 x4) (f x5 x6 x7 x8)) x4)
                (< (+ (f x1 x2 x3 x4) (f x5 x6 x7 x8)) x8)))

(check-synth)
